# Solution for model micodag
# Objective value = 6.75946877569901
s_0_1 0
s_1_0 0
s_1_3 0
s_3_1 0
s_1_4 0
s_4_1 2.1259369931658423e-01
s_2_3 0
s_3_2 2.5696239002434318e-01
s_2_5 5.7956365092533328e+00
s_5_2 0
s_3_4 0
s_4_3 3.9130230555809753e-01
s_4_5 0
s_5_4 0
s_4_6 0
s_6_4 7.8963601523591986e-01
s_4_7 0
s_7_4 7.5307597019769723e-01
s_5_6 0
s_6_5 5.7956365092533328e+00
s_0_0 9.8590551663812764e-01
s_1_1 6.3846613495586713e-01
s_2_2 3.3370292812316302e+00
s_3_3 6.3803383001134506e-01
s_4_4 6.8346356871376557e-01
s_5_5 5.7956365092533328e+00
s_6_6 2.1611800535536050e+00
s_7_7 1.9692578382338475e+00
Gamma_0_0 9.9292774995874145e-01
Gamma_0_1 0
Gamma_0_2 0
Gamma_0_3 0
Gamma_0_4 0
Gamma_0_5 0
Gamma_0_6 0
Gamma_0_7 0
Gamma_1_0 0
Gamma_1_1 7.9904075925816676e-01
Gamma_1_2 0
Gamma_1_3 0
Gamma_1_4 0
Gamma_1_5 0
Gamma_1_6 0
Gamma_1_7 0
Gamma_2_0 0
Gamma_2_1 0
Gamma_2_2 1.8267537549521091e+00
Gamma_2_3 0
Gamma_2_4 0
Gamma_2_5 -8.1676572271761838e-01
Gamma_2_6 0
Gamma_2_7 0
Gamma_3_0 0
Gamma_3_1 0
Gamma_3_2 5.0691457862675882e-01
Gamma_3_3 0.79877019849976
Gamma_3_4 0
Gamma_3_5 0
Gamma_3_6 0
Gamma_3_7 0
Gamma_4_0 0
Gamma_4_1 -4.6107884284207296e-01
Gamma_4_2 0
Gamma_4_3 6.2554160977356144e-01
Gamma_4_4 8.2671855471724265e-01
Gamma_4_5 0
Gamma_4_6 0
Gamma_4_7 0
Gamma_5_0 0
Gamma_5_1 0
Gamma_5_2 0
Gamma_5_3 0
Gamma_5_4 0
Gamma_5_5 1.1151465859674037e+00
Gamma_5_6 0
Gamma_5_7 0
Gamma_6_0 0
Gamma_6_1 0
Gamma_6_2 0
Gamma_6_3 0
Gamma_6_4 -8.8861466071403516e-01
Gamma_6_5 1.2197135872615326e+00
Gamma_6_6 1.4700952532246354e+00
Gamma_6_7 0
Gamma_7_0 0
Gamma_7_1 0
Gamma_7_2 0
Gamma_7_3 0
Gamma_7_4 -8.6779949884618957e-01
Gamma_7_5 0
Gamma_7_6 0
Gamma_7_7 1.4033024756743815e+00
psi_0 0
psi_1 2
psi_2 3
psi_3 2
psi_4 1
psi_5 4
psi_6 0
psi_7 0
g_0_0 0
g_0_1 0
g_0_2 0
g_0_3 0
g_0_4 0
g_0_5 0
g_0_6 0
g_0_7 0
g_1_0 0
g_1_1 0
g_1_2 0
g_1_3 0
g_1_4 0
g_1_5 0
g_1_6 0
g_1_7 0
g_2_0 0
g_2_1 0
g_2_2 0
g_2_3 0
g_2_4 0
g_2_5 1
g_2_6 0
g_2_7 0
g_3_0 0
g_3_1 0
g_3_2 1
g_3_3 0
g_3_4 0
g_3_5 0
g_3_6 0
g_3_7 0
g_4_0 0
g_4_1 1
g_4_2 0
g_4_3 1
g_4_4 0
g_4_5 0
g_4_6 0
g_4_7 0
g_5_0 0
g_5_1 0
g_5_2 0
g_5_3 0
g_5_4 0
g_5_5 0
g_5_6 0
g_5_7 0
g_6_0 0
g_6_1 0
g_6_2 0
g_6_3 0
g_6_4 1
g_6_5 1
g_6_6 0
g_6_7 0
g_7_0 0
g_7_1 0
g_7_2 0
g_7_3 0
g_7_4 1
g_7_5 0
g_7_6 0
g_7_7 0
T_0 1.4194753881625388e-02
T_1 4.4868664335643871e-01
T_2 -1.2050809744480375e+00
T_3 4.4936397194697975e-01
T_4 3.8058192531583757e-01
T_5 -2.1797172701272416e-01
T_6 -7.7065439360667654e-01
T_7 -6.7765673990763275e-01
